nNurses = 108;
nHours = 40;
minHours = 9;
maxHours = 9;
maxConsec = 9;
maxPresence = 22;
demand = [20, 18, 16, 11, 12, 11, 13, 10, 8, 7, 12, 15, 13, 14, 10, 8, 11, 15, 19, 23, 22, 22, 18, 22, 23, 18, 21, 18, 13, 10, 15, 17, 18, 15, 15, 19, 23, 25, 20, 19];
